SAT
-1 -150 -149 -148 -147 -146 -145 -43 144 -133 94 140 -115 66 141 -131 -122 -56 4 63 -93 106 -126 -134 31 137 -73 -47 116 25 -143 96 54 128 36 -28 23 41 2 -102 101 -12 80 24 22 -65 17 100 -119 139 11 -27 35 -114 -67 -15 127 -118 -21 112 -44 -78 130 -117 -123 7 -95 -68 -138 -45 -70 -88 -32 82 -46 -19 97 76 -85 -121 38 -75 -53 42 -81 -64 -90 -136 92 77 -6 91 142 -16 -59 -51 86 33 -132 -103 3 104 87 -13 -14 -60 125 29 -39 71 48 -107 110 -84 -62 99 -10 -49 105 -5 72 61 113 124 55 -98 -89 -74 -20 40 9 26 30 -58 -18 -111 8 -129 50 -108 52 34 120 -69 135 -57 83 37 79 -109 0
